NAME lp_typeD_4954
OBJSENSE MAX
ROWS
 N  OBJ
 L  c0      
 L  c1      
 G  c2      
 G  c3      
 L  c_key_upper
 G  c_key_lower
 G  _chain_constr_1
 G  _chain_constr_2
 G  _chain_constr_3
 G  _chain_cycle
COLUMNS
    x0        OBJ       7.8351569249816855e-01
    x0        c0        1.3772576643253971e+00
    x0        c1        1.6254577480225760e+00
    x0        c2        1.2419268975698219e+00
    x0        c3        5.1846459827966174e-01
    x0        c_key_upper  1.9425075110621437e+00
    x0        c_key_lower  1.9425075110621437e+00
    x1        OBJ       1.2032143884876842e+00
    x1        c0        7.6912334649015879e-01
    x1        c1        9.4683175820727472e-01
    x1        c2        1.5398700734748774e+00
    x1        c3        1.2496478070330215e+00
    x1        c_key_upper  1.0720007255675177e+00
    x1        c_key_lower  1.0720007255675177e+00
    x2        OBJ       1.2438716445569771e+00
    x2        c0        1.3810432725573787e+00
    x2        c1        1.5018884716401912e+00
    x2        c2        1.0108078427907128e+00
    x2        c3        6.8838274918325193e-01
    x2        c_key_upper  1.7967976412203235e+00
    x2        c_key_lower  1.7967976412203235e+00
    x3        OBJ       7.3097122573040818e-01
    x3        c0        1.6500397783909007e+00
    x3        c1        1.9395196646461532e+00
    x3        c2        1.5999839323834624e+00
    x3        c3        1.7331263368189873e+00
    x3        c_key_upper  1.9958995966034472e+00
    x3        c_key_lower  1.9958995966034472e+00
    x4        OBJ       7.2808265689431806e-01
    x4        c0        1.1007430160472591e+00
    x4        c1        1.0751767244747616e+00
    x4        c2        1.7504017423404010e+00
    x4        c3        0.549887709254447
    x4        c_key_upper  1.8461413819827168e+00
    x4        c_key_lower  1.8461413819827168e+00
    _chain_var_0  _chain_constr_1  -1
    _chain_var_0  _chain_cycle  1
    _chain_var_1  _chain_constr_1  1
    _chain_var_1  _chain_constr_2  -1
    _chain_var_2  _chain_constr_2  1
    _chain_var_2  _chain_constr_3  -1
    _chain_var_3  _chain_constr_3  1
    _chain_var_3  _chain_cycle  -1
RHS
    RHS1      c0        2.8934151067231706e+01
    RHS1      c1        2.9277793303018996e+01
    RHS1      c2        9.1910626561658919e+00
    RHS1      c3        5.7183755024416953e+00
    RHS1      c_key_upper  4.3266734282180742e+01
    RHS1      c_key_lower  2.1633367141090371e+01
    RHS1      _chain_constr_1  10
    RHS1      _chain_constr_2  10
    RHS1      _chain_constr_3  10
    RHS1      _chain_cycle  10
BOUNDS
 UP BND1      x0        10
 UP BND1      x1        10
 UP BND1      x2        10
 UP BND1      x3        10
 UP BND1      x4        10
 UP BND1      _chain_var_0  100
 UP BND1      _chain_var_1  100
 UP BND1      _chain_var_2  100
 UP BND1      _chain_var_3  100
ENDATA
